38
16
15
13
14
74
8
7
2
75
76
1
23
22
21
25
24
46
45
44
48
47
69
68
70
67
50
49
52
56
57
63
64
73
72
71
65
66
51
55
40
41
60
59
61
62
58
53
54
42
43
28
27
26
29
32
35
36
37
18
17
11
12
10
9
6
3
4
5
20
19
31
30
33
34
39
38
